s td 27 6 30
b 1 6 30
b 2 14 30
b 3 4 21
b 4 4 20
b 5 7 10 25
b 6 2 12 30
b 7 12 24 30
b 8 3 17 28
b 9 11 22 28
b 10 5 16 26
b 11 17 24 28
b 12 19 22 23
b 13 18 19 20 29
b 14 1 15 26 27
b 15 1 8 13 20 22 26
b 16 5 8 20 26
b 17 1 7 8 13 22 26
b 18 1 7 8 10 26
b 19 1 13 20 22 26 28
b 20 1 13 26 28 30
b 21 1 15 26 28 30
b 22 1 24 28 30
b 23 8 13 20 22 29
b 24 8 19 20 22 29
b 25 24 30
b 26 30
b 27 9
1 26
1 27
2 26
3 4
4 15
5 18
6 7
7 25
8 11
9 19
10 16
11 22
12 24
13 24
14 21
15 16
15 17
15 19
15 23
17 18
19 20
20 21
20 22
22 25
23 24
25 26
